set J := 1 2 3;
set K := A B;
param T := 8;
param Zmax := 2;
param b :
      1   2   3   4   5   6   7   8 := 
1   100 100 100 100 100 100 100 100
2   100 100 100 100 100 100 100 100
3   100 100 100 100 100 100 100 100 ;
param d :
     1   2   3   4   5   6   7   8 :=
A    0  45  30  10  30  50  10  20
B    0   0  25  30  25  30  20  10 ;
param f :=
[*,A,*]: 
    0   1   2 :=
1   1   0   0
2   0   4   0
3   0   0   0
[*,B,*]: 
    0   1   2 :=
1   2   0   0
2   0   3   0
3   0   4   3 ;
param Omax:
      1    2    3    4   5   6   7   8 :=
1   100  100  100  100 100 100 100 100
2   100  100  100  100 100 100 100 100
3   100  100  100  100 100 100 100 100 ;
param Z :=  A 1  B 2;
param y0 := A 0  B 0;
param h :=  A 40  B 40;
param co :=  1 5  2 5  3 5  4 5  5 5  6 5  7 5  8 5;

end;
